12	8	5		
0	1	J1		
1	2	J1		
3	4	J2		
4	5	J2		
6	7	J3		
7	8	J3		
9	10	J4		
10	11	J4		
1	0	147		
2	3	140	1	130
2	3	150	4	160
2	0	214	2	150
2	2	87	1	66
1	4	178		
2	0	87	1	62
1	2	180		
2	3	190	4	100
2	0	87	1	65
1	4	173		
2	3	145	2	136
0	29	57	25	37
29	0	28	52	49
57	28	0	51	62
25	52	51	0	45
37	49	62	45	0
